language ESSENCE' 1.0
$ Minion SolverNodes: 381026
$ Minion SolverTotalTime: 54.8302
$ Minion SolverTimeOut: 0
$ Savile Row TotalTime: 1.854
letting result be [0, 2, 0, 9, 6, 8, 11, 0, 7, 0, 4, 0;int(1..12)]
